data/lp_files/pEFS/69_3.lp
\ Model foo
\ LP format - for model browsing. Use MPS format to capture full model detail.
Minimize
  z
Subject To
 allocateEach[1]: x[1,1] + x[2,1] + x[3,1] + x[4,1] = 1
 allocateEach[2]: x[1,2] + x[2,2] + x[3,2] + x[4,2] = 1
 allocateEach[3]: x[1,3] + x[2,3] + x[3,3] + x[4,3] = 1
 allocateEach[4]: x[1,4] + x[2,4] + x[3,4] + x[4,4] = 1
 allocateEach[5]: x[1,5] + x[2,5] + x[3,5] + x[4,5] = 1
 allocateEach[6]: x[1,6] + x[2,6] + x[3,6] + x[4,6] = 1
 allocateEach[7]: x[1,7] + x[2,7] + x[3,7] + x[4,7] = 1
 allocateEach[8]: x[1,8] + x[2,8] + x[3,8] + x[4,8] = 1
 allocateEach[9]: x[1,9] + x[2,9] + x[3,9] + x[4,9] = 1
 allocateAllCash: cashProportion[1] + cashProportion[2] + cashProportion[3]
   + cashProportion[4] = 1
 findWorstP[1,2]: z + 0.0434839326868722 cashProportion[1]
   - 0.0434839326868722 cashProportion[2] + 0.1926990477018742 x[1,1]
   + 0.1460842718615472 x[1,2] + 0.1204287515762926 x[1,3]
   + 0.0381354089663869 x[1,4] + 0.0435926425185894 x[1,5]
   + 0.1585641605426795 x[1,6] + 0.1353219985215463 x[1,7]
   + 0.0372874722789929 x[1,8] + 0.0844023133452189 x[1,9]
   - 0.1926990477018742 x[2,1] - 0.1460842718615472 x[2,2]
   - 0.1204287515762926 x[2,3] - 0.0381354089663869 x[2,4]
   - 0.0435926425185894 x[2,5] - 0.1585641605426795 x[2,6]
   - 0.1353219985215463 x[2,7] - 0.0372874722789929 x[2,8]
   - 0.0844023133452189 x[2,9] >= 0
 findWorstP[1,3]: z + 0.0434839326868722 cashProportion[1]
   - 0.0434839326868722 cashProportion[3] + 0.1926990477018742 x[1,1]
   + 0.1460842718615472 x[1,2] + 0.1204287515762926 x[1,3]
   + 0.0381354089663869 x[1,4] + 0.0435926425185894 x[1,5]
   + 0.1585641605426795 x[1,6] + 0.1353219985215463 x[1,7]
   + 0.0372874722789929 x[1,8] + 0.0844023133452189 x[1,9]
   - 0.1926990477018742 x[3,1] - 0.1460842718615472 x[3,2]
   - 0.1204287515762926 x[3,3] - 0.0381354089663869 x[3,4]
   - 0.0435926425185894 x[3,5] - 0.1585641605426795 x[3,6]
   - 0.1353219985215463 x[3,7] - 0.0372874722789929 x[3,8]
   - 0.0844023133452189 x[3,9] >= 0
 findWorstP[1,4]: z + 0.0434839326868722 cashProportion[1]
   - 0.0434839326868722 cashProportion[4] + 0.1926990477018742 x[1,1]
   + 0.1460842718615472 x[1,2] + 0.1204287515762926 x[1,3]
   + 0.0381354089663869 x[1,4] + 0.0435926425185894 x[1,5]
   + 0.1585641605426795 x[1,6] + 0.1353219985215463 x[1,7]
   + 0.0372874722789929 x[1,8] + 0.0844023133452189 x[1,9]
   - 0.1926990477018742 x[4,1] - 0.1460842718615472 x[4,2]
   - 0.1204287515762926 x[4,3] - 0.0381354089663869 x[4,4]
   - 0.0435926425185894 x[4,5] - 0.1585641605426795 x[4,6]
   - 0.1353219985215463 x[4,7] - 0.0372874722789929 x[4,8]
   - 0.0844023133452189 x[4,9] >= 0
 findWorstP[2,1]: z - 0.0347222222222222 cashProportion[1]
   + 0.0347222222222222 cashProportion[2] - 0.1496701388888889 x[1,1]
   - 0.1317708333333333 x[1,2] - 0.06984375 x[1,3] - 0.15078125 x[1,4]
   - 0.1198263888888889 x[1,5] - 0.0852256944444444 x[1,6]
   - 0.1358333333333333 x[1,7] - 0.0677256944444444 x[1,8]
   - 0.0546006944444444 x[1,9] + 0.1496701388888889 x[2,1]
   + 0.1317708333333333 x[2,2] + 0.06984375 x[2,3] + 0.15078125 x[2,4]
   + 0.1198263888888889 x[2,5] + 0.0852256944444444 x[2,6]
   + 0.1358333333333333 x[2,7] + 0.0677256944444444 x[2,8]
   + 0.0546006944444444 x[2,9] >= 0
 findWorstP[2,3]: z + 0.0347222222222222 cashProportion[2]
   - 0.0347222222222222 cashProportion[3] + 0.1496701388888889 x[2,1]
   + 0.1317708333333333 x[2,2] + 0.06984375 x[2,3] + 0.15078125 x[2,4]
   + 0.1198263888888889 x[2,5] + 0.0852256944444444 x[2,6]
   + 0.1358333333333333 x[2,7] + 0.0677256944444444 x[2,8]
   + 0.0546006944444444 x[2,9] - 0.1496701388888889 x[3,1]
   - 0.1317708333333333 x[3,2] - 0.06984375 x[3,3] - 0.15078125 x[3,4]
   - 0.1198263888888889 x[3,5] - 0.0852256944444444 x[3,6]
   - 0.1358333333333333 x[3,7] - 0.0677256944444444 x[3,8]
   - 0.0546006944444444 x[3,9] >= 0
 findWorstP[2,4]: z + 0.0347222222222222 cashProportion[2]
   - 0.0347222222222222 cashProportion[4] + 0.1496701388888889 x[2,1]
   + 0.1317708333333333 x[2,2] + 0.06984375 x[2,3] + 0.15078125 x[2,4]
   + 0.1198263888888889 x[2,5] + 0.0852256944444444 x[2,6]
   + 0.1358333333333333 x[2,7] + 0.0677256944444444 x[2,8]
   + 0.0546006944444444 x[2,9] - 0.1496701388888889 x[4,1]
   - 0.1317708333333333 x[4,2] - 0.06984375 x[4,3] - 0.15078125 x[4,4]
   - 0.1198263888888889 x[4,5] - 0.0852256944444444 x[4,6]
   - 0.1358333333333333 x[4,7] - 0.0677256944444444 x[4,8]
   - 0.0546006944444444 x[4,9] >= 0
 findWorstP[3,1]: z - 0.0527217609068143 cashProportion[1]
   + 0.0527217609068143 cashProportion[3] - 0.2143403189666535 x[1,1]
   - 0.2024252010017135 x[1,2] - 0.0199024647423224 x[1,3]
   - 0.00572031105838935 x[1,4] - 0.1788585738763675 x[1,5]
   - 0.2036378015025702 x[1,6] - 0.00948991696322657 x[1,7]
   - 0.1018320811915118 x[1,8] - 0.011071569790431 x[1,9]
   + 0.2143403189666535 x[3,1] + 0.2024252010017135 x[3,2]
   + 0.0199024647423224 x[3,3] + 0.00572031105838935 x[3,4]
   + 0.1788585738763675 x[3,5] + 0.2036378015025702 x[3,6]
   + 0.00948991696322657 x[3,7] + 0.1018320811915118 x[3,8]
   + 0.011071569790431 x[3,9] >= 0
 findWorstP[3,2]: z - 0.0527217609068143 cashProportion[2]
   + 0.0527217609068143 cashProportion[3] - 0.2143403189666535 x[2,1]
   - 0.2024252010017135 x[2,2] - 0.0199024647423224 x[2,3]
   - 0.00572031105838935 x[2,4] - 0.1788585738763675 x[2,5]
   - 0.2036378015025702 x[2,6] - 0.00948991696322657 x[2,7]
   - 0.1018320811915118 x[2,8] - 0.011071569790431 x[2,9]
   + 0.2143403189666535 x[3,1] + 0.2024252010017135 x[3,2]
   + 0.0199024647423224 x[3,3] + 0.00572031105838935 x[3,4]
   + 0.1788585738763675 x[3,5] + 0.2036378015025702 x[3,6]
   + 0.00948991696322657 x[3,7] + 0.1018320811915118 x[3,8]
   + 0.011071569790431 x[3,9] >= 0
 findWorstP[3,4]: z + 0.0527217609068143 cashProportion[3]
   - 0.0527217609068143 cashProportion[4] + 0.2143403189666535 x[3,1]
   + 0.2024252010017135 x[3,2] + 0.0199024647423224 x[3,3]
   + 0.00572031105838935 x[3,4] + 0.1788585738763675 x[3,5]
   + 0.2036378015025702 x[3,6] + 0.00948991696322657 x[3,7]
   + 0.1018320811915118 x[3,8] + 0.011071569790431 x[3,9]
   - 0.2143403189666535 x[4,1] - 0.2024252010017135 x[4,2]
   - 0.0199024647423224 x[4,3] - 0.00572031105838935 x[4,4]
   - 0.1788585738763675 x[4,5] - 0.2036378015025702 x[4,6]
   - 0.00948991696322657 x[4,7] - 0.1018320811915118 x[4,8]
   - 0.011071569790431 x[4,9] >= 0
 findWorstP[4,1]: z - 0.0356569798538064 cashProportion[1]
   + 0.0356569798538064 cashProportion[4] - 0.1003743982884649 x[1,1]
   - 0.1465680156890711 x[1,2] - 0.1428953467641291 x[1,3]
   - 0.1348368693171688 x[1,4] - 0.0629523979318952 x[1,5]
   - 0.1312355143519344 x[1,6] - 0.0571403102157247 x[1,7]
   - 0.0621144589053307 x[1,8] - 0.1262257086824746 x[1,9]
   + 0.1003743982884649 x[4,1] + 0.1465680156890711 x[4,2]
   + 0.1428953467641291 x[4,3] + 0.1348368693171688 x[4,4]
   + 0.0629523979318952 x[4,5] + 0.1312355143519344 x[4,6]
   + 0.0571403102157247 x[4,7] + 0.0621144589053307 x[4,8]
   + 0.1262257086824746 x[4,9] >= 0
 findWorstP[4,2]: z - 0.0356569798538064 cashProportion[2]
   + 0.0356569798538064 cashProportion[4] - 0.1003743982884649 x[2,1]
   - 0.1465680156890711 x[2,2] - 0.1428953467641291 x[2,3]
   - 0.1348368693171688 x[2,4] - 0.0629523979318952 x[2,5]
   - 0.1312355143519344 x[2,6] - 0.0571403102157247 x[2,7]
   - 0.0621144589053307 x[2,8] - 0.1262257086824746 x[2,9]
   + 0.1003743982884649 x[4,1] + 0.1465680156890711 x[4,2]
   + 0.1428953467641291 x[4,3] + 0.1348368693171688 x[4,4]
   + 0.0629523979318952 x[4,5] + 0.1312355143519344 x[4,6]
   + 0.0571403102157247 x[4,7] + 0.0621144589053307 x[4,8]
   + 0.1262257086824746 x[4,9] >= 0
 findWorstP[4,3]: z - 0.0356569798538064 cashProportion[3]
   + 0.0356569798538064 cashProportion[4] - 0.1003743982884649 x[3,1]
   - 0.1465680156890711 x[3,2] - 0.1428953467641291 x[3,3]
   - 0.1348368693171688 x[3,4] - 0.0629523979318952 x[3,5]
   - 0.1312355143519344 x[3,6] - 0.0571403102157247 x[3,7]
   - 0.0621144589053307 x[3,8] - 0.1262257086824746 x[3,9]
   + 0.1003743982884649 x[4,1] + 0.1465680156890711 x[4,2]
   + 0.1428953467641291 x[4,3] + 0.1348368693171688 x[4,4]
   + 0.0629523979318952 x[4,5] + 0.1312355143519344 x[4,6]
   + 0.0571403102157247 x[4,7] + 0.0621144589053307 x[4,8]
   + 0.1262257086824746 x[4,9] >= 0
Bounds
 z <= 1
 -infinity <= cashProportion[1] <= 1
 -infinity <= cashProportion[2] <= 1
 -infinity <= cashProportion[3] <= 1
 -infinity <= cashProportion[4] <= 1
Binaries
 x[1,1] x[1,2] x[1,3] x[1,4] x[1,5] x[1,6] x[1,7] x[1,8] x[1,9] x[2,1]
 x[2,2] x[2,3] x[2,4] x[2,5] x[2,6] x[2,7] x[2,8] x[2,9] x[3,1] x[3,2]
 x[3,3] x[3,4] x[3,5] x[3,6] x[3,7] x[3,8] x[3,9] x[4,1] x[4,2] x[4,3]
 x[4,4] x[4,5] x[4,6] x[4,7] x[4,8] x[4,9]
End
