data/mps_files/pEFS/69_3.mps
NAME foo
ROWS
 N  OBJ
 E  allocateEach[1]
 E  allocateEach[2]
 E  allocateEach[3]
 E  allocateEach[4]
 E  allocateEach[5]
 E  allocateEach[6]
 E  allocateEach[7]
 E  allocateEach[8]
 E  allocateEach[9]
 E  allocateAllCash
 G  findWorstP[1,2]
 G  findWorstP[1,3]
 G  findWorstP[1,4]
 G  findWorstP[2,1]
 G  findWorstP[2,3]
 G  findWorstP[2,4]
 G  findWorstP[3,1]
 G  findWorstP[3,2]
 G  findWorstP[3,4]
 G  findWorstP[4,1]
 G  findWorstP[4,2]
 G  findWorstP[4,3]
COLUMNS
    z         OBJ       1
    z         findWorstP[1,2]  1
    z         findWorstP[1,3]  1
    z         findWorstP[1,4]  1
    z         findWorstP[2,1]  1
    z         findWorstP[2,3]  1
    z         findWorstP[2,4]  1
    z         findWorstP[3,1]  1
    z         findWorstP[3,2]  1
    z         findWorstP[3,4]  1
    z         findWorstP[4,1]  1
    z         findWorstP[4,2]  1
    z         findWorstP[4,3]  1
    cashProportion[1]  allocateAllCash  1
    cashProportion[1]  findWorstP[1,2]  0.0434839326868722
    cashProportion[1]  findWorstP[1,3]  0.0434839326868722
    cashProportion[1]  findWorstP[1,4]  0.0434839326868722
    cashProportion[1]  findWorstP[2,1]  -3.4722222222222217e-02
    cashProportion[1]  findWorstP[3,1]  -5.2721760906814290e-02
    cashProportion[1]  findWorstP[4,1]  -3.5656979853806385e-02
    cashProportion[2]  allocateAllCash  1
    cashProportion[2]  findWorstP[1,2]  -0.0434839326868722
    cashProportion[2]  findWorstP[2,1]  3.4722222222222217e-02
    cashProportion[2]  findWorstP[2,3]  3.4722222222222217e-02
    cashProportion[2]  findWorstP[2,4]  3.4722222222222217e-02
    cashProportion[2]  findWorstP[3,2]  -5.2721760906814290e-02
    cashProportion[2]  findWorstP[4,2]  -3.5656979853806385e-02
    cashProportion[3]  allocateAllCash  1
    cashProportion[3]  findWorstP[1,3]  -0.0434839326868722
    cashProportion[3]  findWorstP[2,3]  -3.4722222222222217e-02
    cashProportion[3]  findWorstP[3,1]  5.2721760906814290e-02
    cashProportion[3]  findWorstP[3,2]  5.2721760906814290e-02
    cashProportion[3]  findWorstP[3,4]  5.2721760906814290e-02
    cashProportion[3]  findWorstP[4,3]  -3.5656979853806385e-02
    cashProportion[4]  allocateAllCash  1
    cashProportion[4]  findWorstP[1,4]  -0.0434839326868722
    cashProportion[4]  findWorstP[2,4]  -3.4722222222222217e-02
    cashProportion[4]  findWorstP[3,4]  -5.2721760906814290e-02
    cashProportion[4]  findWorstP[4,1]  3.5656979853806385e-02
    cashProportion[4]  findWorstP[4,2]  3.5656979853806385e-02
    cashProportion[4]  findWorstP[4,3]  3.5656979853806385e-02
    MARKER    'MARKER'                 'INTORG'
    x[1,1]    allocateEach[1]  1
    x[1,1]    findWorstP[1,2]  1.9269904770187415e-01
    x[1,1]    findWorstP[1,3]  1.9269904770187415e-01
    x[1,1]    findWorstP[1,4]  1.9269904770187415e-01
    x[1,1]    findWorstP[2,1]  -1.4967013888888886e-01
    x[1,1]    findWorstP[3,1]  -2.1434031896665348e-01
    x[1,1]    findWorstP[4,1]  -1.0037439828846495e-01
    x[1,2]    allocateEach[2]  1
    x[1,2]    findWorstP[1,2]  1.4608427186154718e-01
    x[1,2]    findWorstP[1,3]  1.4608427186154718e-01
    x[1,2]    findWorstP[1,4]  1.4608427186154718e-01
    x[1,2]    findWorstP[2,1]  -1.3177083333333331e-01
    x[1,2]    findWorstP[3,1]  -2.0242520100171346e-01
    x[1,2]    findWorstP[4,1]  -1.4656801568907113e-01
    x[1,3]    allocateEach[3]  1
    x[1,3]    findWorstP[1,2]  1.2042875157629256e-01
    x[1,3]    findWorstP[1,3]  1.2042875157629256e-01
    x[1,3]    findWorstP[1,4]  1.2042875157629256e-01
    x[1,3]    findWorstP[2,1]  -6.9843749999999982e-02
    x[1,3]    findWorstP[3,1]  -1.9902464742322393e-02
    x[1,3]    findWorstP[4,1]  -1.4289534676412907e-01
    x[1,4]    allocateEach[4]  1
    x[1,4]    findWorstP[1,2]  3.8135408966386918e-02
    x[1,4]    findWorstP[1,3]  3.8135408966386918e-02
    x[1,4]    findWorstP[1,4]  3.8135408966386918e-02
    x[1,4]    findWorstP[2,1]  -1.5078124999999998e-01
    x[1,4]    findWorstP[3,1]  -0.00572031105838935
    x[1,4]    findWorstP[4,1]  -1.3483686931716882e-01
    x[1,5]    allocateEach[5]  1
    x[1,5]    findWorstP[1,2]  4.3592642518589381e-02
    x[1,5]    findWorstP[1,3]  4.3592642518589381e-02
    x[1,5]    findWorstP[1,4]  4.3592642518589381e-02
    x[1,5]    findWorstP[2,1]  -1.1982638888888887e-01
    x[1,5]    findWorstP[3,1]  -1.7885857387636747e-01
    x[1,5]    findWorstP[4,1]  -6.2952397931895165e-02
    x[1,6]    allocateEach[6]  1
    x[1,6]    findWorstP[1,2]  1.5856416054267947e-01
    x[1,6]    findWorstP[1,3]  1.5856416054267947e-01
    x[1,6]    findWorstP[1,4]  1.5856416054267947e-01
    x[1,6]    findWorstP[2,1]  -8.5225694444444430e-02
    x[1,6]    findWorstP[3,1]  -2.0363780150257016e-01
    x[1,6]    findWorstP[4,1]  -1.3123551435193437e-01
    x[1,7]    allocateEach[7]  1
    x[1,7]    findWorstP[1,2]  1.3532199852154628e-01
    x[1,7]    findWorstP[1,3]  1.3532199852154628e-01
    x[1,7]    findWorstP[1,4]  1.3532199852154628e-01
    x[1,7]    findWorstP[2,1]  -1.3583333333333331e-01
    x[1,7]    findWorstP[3,1]  -0.00948991696322657
    x[1,7]    findWorstP[4,1]  -5.7140310215724729e-02
    x[1,8]    allocateEach[8]  1
    x[1,8]    findWorstP[1,2]  3.7287472278992914e-02
    x[1,8]    findWorstP[1,3]  3.7287472278992914e-02
    x[1,8]    findWorstP[1,4]  3.7287472278992914e-02
    x[1,8]    findWorstP[2,1]  -6.7725694444444429e-02
    x[1,8]    findWorstP[3,1]  -1.0183208119151178e-01
    x[1,8]    findWorstP[4,1]  -6.2114458905330711e-02
    x[1,9]    allocateEach[9]  1
    x[1,9]    findWorstP[1,2]  8.4402313345218943e-02
    x[1,9]    findWorstP[1,3]  8.4402313345218943e-02
    x[1,9]    findWorstP[1,4]  8.4402313345218943e-02
    x[1,9]    findWorstP[2,1]  -5.4600694444444431e-02
    x[1,9]    findWorstP[3,1]  -0.011071569790431
    x[1,9]    findWorstP[4,1]  -1.2622570868247457e-01
    x[2,1]    allocateEach[1]  1
    x[2,1]    findWorstP[1,2]  -1.9269904770187415e-01
    x[2,1]    findWorstP[2,1]  1.4967013888888886e-01
    x[2,1]    findWorstP[2,3]  1.4967013888888886e-01
    x[2,1]    findWorstP[2,4]  1.4967013888888886e-01
    x[2,1]    findWorstP[3,2]  -2.1434031896665348e-01
    x[2,1]    findWorstP[4,2]  -1.0037439828846495e-01
    x[2,2]    allocateEach[2]  1
    x[2,2]    findWorstP[1,2]  -1.4608427186154718e-01
    x[2,2]    findWorstP[2,1]  1.3177083333333331e-01
    x[2,2]    findWorstP[2,3]  1.3177083333333331e-01
    x[2,2]    findWorstP[2,4]  1.3177083333333331e-01
    x[2,2]    findWorstP[3,2]  -2.0242520100171346e-01
    x[2,2]    findWorstP[4,2]  -1.4656801568907113e-01
    x[2,3]    allocateEach[3]  1
    x[2,3]    findWorstP[1,2]  -1.2042875157629256e-01
    x[2,3]    findWorstP[2,1]  6.9843749999999982e-02
    x[2,3]    findWorstP[2,3]  6.9843749999999982e-02
    x[2,3]    findWorstP[2,4]  6.9843749999999982e-02
    x[2,3]    findWorstP[3,2]  -1.9902464742322393e-02
    x[2,3]    findWorstP[4,2]  -1.4289534676412907e-01
    x[2,4]    allocateEach[4]  1
    x[2,4]    findWorstP[1,2]  -3.8135408966386918e-02
    x[2,4]    findWorstP[2,1]  1.5078124999999998e-01
    x[2,4]    findWorstP[2,3]  1.5078124999999998e-01
    x[2,4]    findWorstP[2,4]  1.5078124999999998e-01
    x[2,4]    findWorstP[3,2]  -0.00572031105838935
    x[2,4]    findWorstP[4,2]  -1.3483686931716882e-01
    x[2,5]    allocateEach[5]  1
    x[2,5]    findWorstP[1,2]  -4.3592642518589381e-02
    x[2,5]    findWorstP[2,1]  1.1982638888888887e-01
    x[2,5]    findWorstP[2,3]  1.1982638888888887e-01
    x[2,5]    findWorstP[2,4]  1.1982638888888887e-01
    x[2,5]    findWorstP[3,2]  -1.7885857387636747e-01
    x[2,5]    findWorstP[4,2]  -6.2952397931895165e-02
    x[2,6]    allocateEach[6]  1
    x[2,6]    findWorstP[1,2]  -1.5856416054267947e-01
    x[2,6]    findWorstP[2,1]  8.5225694444444430e-02
    x[2,6]    findWorstP[2,3]  8.5225694444444430e-02
    x[2,6]    findWorstP[2,4]  8.5225694444444430e-02
    x[2,6]    findWorstP[3,2]  -2.0363780150257016e-01
    x[2,6]    findWorstP[4,2]  -1.3123551435193437e-01
    x[2,7]    allocateEach[7]  1
    x[2,7]    findWorstP[1,2]  -1.3532199852154628e-01
    x[2,7]    findWorstP[2,1]  1.3583333333333331e-01
    x[2,7]    findWorstP[2,3]  1.3583333333333331e-01
    x[2,7]    findWorstP[2,4]  1.3583333333333331e-01
    x[2,7]    findWorstP[3,2]  -0.00948991696322657
    x[2,7]    findWorstP[4,2]  -5.7140310215724729e-02
    x[2,8]    allocateEach[8]  1
    x[2,8]    findWorstP[1,2]  -3.7287472278992914e-02
    x[2,8]    findWorstP[2,1]  6.7725694444444429e-02
    x[2,8]    findWorstP[2,3]  6.7725694444444429e-02
    x[2,8]    findWorstP[2,4]  6.7725694444444429e-02
    x[2,8]    findWorstP[3,2]  -1.0183208119151178e-01
    x[2,8]    findWorstP[4,2]  -6.2114458905330711e-02
    x[2,9]    allocateEach[9]  1
    x[2,9]    findWorstP[1,2]  -8.4402313345218943e-02
    x[2,9]    findWorstP[2,1]  5.4600694444444431e-02
    x[2,9]    findWorstP[2,3]  5.4600694444444431e-02
    x[2,9]    findWorstP[2,4]  5.4600694444444431e-02
    x[2,9]    findWorstP[3,2]  -0.011071569790431
    x[2,9]    findWorstP[4,2]  -1.2622570868247457e-01
    x[3,1]    allocateEach[1]  1
    x[3,1]    findWorstP[1,3]  -1.9269904770187415e-01
    x[3,1]    findWorstP[2,3]  -1.4967013888888886e-01
    x[3,1]    findWorstP[3,1]  2.1434031896665348e-01
    x[3,1]    findWorstP[3,2]  2.1434031896665348e-01
    x[3,1]    findWorstP[3,4]  2.1434031896665348e-01
    x[3,1]    findWorstP[4,3]  -1.0037439828846495e-01
    x[3,2]    allocateEach[2]  1
    x[3,2]    findWorstP[1,3]  -1.4608427186154718e-01
    x[3,2]    findWorstP[2,3]  -1.3177083333333331e-01
    x[3,2]    findWorstP[3,1]  2.0242520100171346e-01
    x[3,2]    findWorstP[3,2]  2.0242520100171346e-01
    x[3,2]    findWorstP[3,4]  2.0242520100171346e-01
    x[3,2]    findWorstP[4,3]  -1.4656801568907113e-01
    x[3,3]    allocateEach[3]  1
    x[3,3]    findWorstP[1,3]  -1.2042875157629256e-01
    x[3,3]    findWorstP[2,3]  -6.9843749999999982e-02
    x[3,3]    findWorstP[3,1]  1.9902464742322393e-02
    x[3,3]    findWorstP[3,2]  1.9902464742322393e-02
    x[3,3]    findWorstP[3,4]  1.9902464742322393e-02
    x[3,3]    findWorstP[4,3]  -1.4289534676412907e-01
    x[3,4]    allocateEach[4]  1
    x[3,4]    findWorstP[1,3]  -3.8135408966386918e-02
    x[3,4]    findWorstP[2,3]  -1.5078124999999998e-01
    x[3,4]    findWorstP[3,1]  0.00572031105838935
    x[3,4]    findWorstP[3,2]  0.00572031105838935
    x[3,4]    findWorstP[3,4]  0.00572031105838935
    x[3,4]    findWorstP[4,3]  -1.3483686931716882e-01
    x[3,5]    allocateEach[5]  1
    x[3,5]    findWorstP[1,3]  -4.3592642518589381e-02
    x[3,5]    findWorstP[2,3]  -1.1982638888888887e-01
    x[3,5]    findWorstP[3,1]  1.7885857387636747e-01
    x[3,5]    findWorstP[3,2]  1.7885857387636747e-01
    x[3,5]    findWorstP[3,4]  1.7885857387636747e-01
    x[3,5]    findWorstP[4,3]  -6.2952397931895165e-02
    x[3,6]    allocateEach[6]  1
    x[3,6]    findWorstP[1,3]  -1.5856416054267947e-01
    x[3,6]    findWorstP[2,3]  -8.5225694444444430e-02
    x[3,6]    findWorstP[3,1]  2.0363780150257016e-01
    x[3,6]    findWorstP[3,2]  2.0363780150257016e-01
    x[3,6]    findWorstP[3,4]  2.0363780150257016e-01
    x[3,6]    findWorstP[4,3]  -1.3123551435193437e-01
    x[3,7]    allocateEach[7]  1
    x[3,7]    findWorstP[1,3]  -1.3532199852154628e-01
    x[3,7]    findWorstP[2,3]  -1.3583333333333331e-01
    x[3,7]    findWorstP[3,1]  0.00948991696322657
    x[3,7]    findWorstP[3,2]  0.00948991696322657
    x[3,7]    findWorstP[3,4]  0.00948991696322657
    x[3,7]    findWorstP[4,3]  -5.7140310215724729e-02
    x[3,8]    allocateEach[8]  1
    x[3,8]    findWorstP[1,3]  -3.7287472278992914e-02
    x[3,8]    findWorstP[2,3]  -6.7725694444444429e-02
    x[3,8]    findWorstP[3,1]  1.0183208119151178e-01
    x[3,8]    findWorstP[3,2]  1.0183208119151178e-01
    x[3,8]    findWorstP[3,4]  1.0183208119151178e-01
    x[3,8]    findWorstP[4,3]  -6.2114458905330711e-02
    x[3,9]    allocateEach[9]  1
    x[3,9]    findWorstP[1,3]  -8.4402313345218943e-02
    x[3,9]    findWorstP[2,3]  -5.4600694444444431e-02
    x[3,9]    findWorstP[3,1]  0.011071569790431
    x[3,9]    findWorstP[3,2]  0.011071569790431
    x[3,9]    findWorstP[3,4]  0.011071569790431
    x[3,9]    findWorstP[4,3]  -1.2622570868247457e-01
    x[4,1]    allocateEach[1]  1
    x[4,1]    findWorstP[1,4]  -1.9269904770187415e-01
    x[4,1]    findWorstP[2,4]  -1.4967013888888886e-01
    x[4,1]    findWorstP[3,4]  -2.1434031896665348e-01
    x[4,1]    findWorstP[4,1]  1.0037439828846495e-01
    x[4,1]    findWorstP[4,2]  1.0037439828846495e-01
    x[4,1]    findWorstP[4,3]  1.0037439828846495e-01
    x[4,2]    allocateEach[2]  1
    x[4,2]    findWorstP[1,4]  -1.4608427186154718e-01
    x[4,2]    findWorstP[2,4]  -1.3177083333333331e-01
    x[4,2]    findWorstP[3,4]  -2.0242520100171346e-01
    x[4,2]    findWorstP[4,1]  1.4656801568907113e-01
    x[4,2]    findWorstP[4,2]  1.4656801568907113e-01
    x[4,2]    findWorstP[4,3]  1.4656801568907113e-01
    x[4,3]    allocateEach[3]  1
    x[4,3]    findWorstP[1,4]  -1.2042875157629256e-01
    x[4,3]    findWorstP[2,4]  -6.9843749999999982e-02
    x[4,3]    findWorstP[3,4]  -1.9902464742322393e-02
    x[4,3]    findWorstP[4,1]  1.4289534676412907e-01
    x[4,3]    findWorstP[4,2]  1.4289534676412907e-01
    x[4,3]    findWorstP[4,3]  1.4289534676412907e-01
    x[4,4]    allocateEach[4]  1
    x[4,4]    findWorstP[1,4]  -3.8135408966386918e-02
    x[4,4]    findWorstP[2,4]  -1.5078124999999998e-01
    x[4,4]    findWorstP[3,4]  -0.00572031105838935
    x[4,4]    findWorstP[4,1]  1.3483686931716882e-01
    x[4,4]    findWorstP[4,2]  1.3483686931716882e-01
    x[4,4]    findWorstP[4,3]  1.3483686931716882e-01
    x[4,5]    allocateEach[5]  1
    x[4,5]    findWorstP[1,4]  -4.3592642518589381e-02
    x[4,5]    findWorstP[2,4]  -1.1982638888888887e-01
    x[4,5]    findWorstP[3,4]  -1.7885857387636747e-01
    x[4,5]    findWorstP[4,1]  6.2952397931895165e-02
    x[4,5]    findWorstP[4,2]  6.2952397931895165e-02
    x[4,5]    findWorstP[4,3]  6.2952397931895165e-02
    x[4,6]    allocateEach[6]  1
    x[4,6]    findWorstP[1,4]  -1.5856416054267947e-01
    x[4,6]    findWorstP[2,4]  -8.5225694444444430e-02
    x[4,6]    findWorstP[3,4]  -2.0363780150257016e-01
    x[4,6]    findWorstP[4,1]  1.3123551435193437e-01
    x[4,6]    findWorstP[4,2]  1.3123551435193437e-01
    x[4,6]    findWorstP[4,3]  1.3123551435193437e-01
    x[4,7]    allocateEach[7]  1
    x[4,7]    findWorstP[1,4]  -1.3532199852154628e-01
    x[4,7]    findWorstP[2,4]  -1.3583333333333331e-01
    x[4,7]    findWorstP[3,4]  -0.00948991696322657
    x[4,7]    findWorstP[4,1]  5.7140310215724729e-02
    x[4,7]    findWorstP[4,2]  5.7140310215724729e-02
    x[4,7]    findWorstP[4,3]  5.7140310215724729e-02
    x[4,8]    allocateEach[8]  1
    x[4,8]    findWorstP[1,4]  -3.7287472278992914e-02
    x[4,8]    findWorstP[2,4]  -6.7725694444444429e-02
    x[4,8]    findWorstP[3,4]  -1.0183208119151178e-01
    x[4,8]    findWorstP[4,1]  6.2114458905330711e-02
    x[4,8]    findWorstP[4,2]  6.2114458905330711e-02
    x[4,8]    findWorstP[4,3]  6.2114458905330711e-02
    x[4,9]    allocateEach[9]  1
    x[4,9]    findWorstP[1,4]  -8.4402313345218943e-02
    x[4,9]    findWorstP[2,4]  -5.4600694444444431e-02
    x[4,9]    findWorstP[3,4]  -0.011071569790431
    x[4,9]    findWorstP[4,1]  1.2622570868247457e-01
    x[4,9]    findWorstP[4,2]  1.2622570868247457e-01
    x[4,9]    findWorstP[4,3]  1.2622570868247457e-01
    MARKER    'MARKER'                 'INTEND'
RHS
    RHS1      allocateEach[1]  1
    RHS1      allocateEach[2]  1
    RHS1      allocateEach[3]  1
    RHS1      allocateEach[4]  1
    RHS1      allocateEach[5]  1
    RHS1      allocateEach[6]  1
    RHS1      allocateEach[7]  1
    RHS1      allocateEach[8]  1
    RHS1      allocateEach[9]  1
    RHS1      allocateAllCash  1
BOUNDS
 UP BND1      z         1
 MI BND1      cashProportion[1]
 UP BND1      cashProportion[1]  1
 MI BND1      cashProportion[2]
 UP BND1      cashProportion[2]  1
 MI BND1      cashProportion[3]
 UP BND1      cashProportion[3]  1
 MI BND1      cashProportion[4]
 UP BND1      cashProportion[4]  1
 BV BND1      x[1,1]  
 BV BND1      x[1,2]  
 BV BND1      x[1,3]  
 BV BND1      x[1,4]  
 BV BND1      x[1,5]  
 BV BND1      x[1,6]  
 BV BND1      x[1,7]  
 BV BND1      x[1,8]  
 BV BND1      x[1,9]  
 BV BND1      x[2,1]  
 BV BND1      x[2,2]  
 BV BND1      x[2,3]  
 BV BND1      x[2,4]  
 BV BND1      x[2,5]  
 BV BND1      x[2,6]  
 BV BND1      x[2,7]  
 BV BND1      x[2,8]  
 BV BND1      x[2,9]  
 BV BND1      x[3,1]  
 BV BND1      x[3,2]  
 BV BND1      x[3,3]  
 BV BND1      x[3,4]  
 BV BND1      x[3,5]  
 BV BND1      x[3,6]  
 BV BND1      x[3,7]  
 BV BND1      x[3,8]  
 BV BND1      x[3,9]  
 BV BND1      x[4,1]  
 BV BND1      x[4,2]  
 BV BND1      x[4,3]  
 BV BND1      x[4,4]  
 BV BND1      x[4,5]  
 BV BND1      x[4,6]  
 BV BND1      x[4,7]  
 BV BND1      x[4,8]  
 BV BND1      x[4,9]  
ENDATA
